c width = 6, time = 0.121274
s td 11 7 20
b 1 10 14 15 16
b 2 1 5 10 14 16 18 20
b 3 1 13 14 16 18 20
b 4 1 2 13 18 19 20
b 5 13 16 17 18
b 6 1 5 10 11 14 20
b 7 1 3 4 5 11 20
b 8 1 11 12 14
b 9 5 8 10 16 18 20
b 10 5 6 7 8 18 20
b 11 5 8 9 10
3 4
3 5
2 3
6 7
6 8
2 6
9 10
9 11
2 9
1 2
